c description: Perfect Matching Principle on 
c generator: CNFgen (0.9.0)
c copyright: (C) 2012-2020 Massimo Lauria <massimo.lauria@uniroma1.it>
c url: https://massimolauria.net/cnfgen
c
p cnf 120 956
-1 -2 0
-1 -3 0
-1 -4 0
-1 -5 0
-1 -6 0
-1 -7 0
-1 -8 0
-1 -9 0
-1 -10 0
-2 -3 0
-2 -4 0
-2 -5 0
-2 -6 0
-2 -7 0
-2 -8 0
-2 -9 0
-2 -10 0
-3 -4 0
-3 -5 0
-3 -6 0
-3 -7 0
-3 -8 0
-3 -9 0
-3 -10 0
-4 -5 0
-4 -6 0
-4 -7 0
-4 -8 0
-4 -9 0
-4 -10 0
-5 -6 0
-5 -7 0
-5 -8 0
-5 -9 0
-5 -10 0
-6 -7 0
-6 -8 0
-6 -9 0
-6 -10 0
-7 -8 0
-7 -9 0
-7 -10 0
-8 -9 0
-8 -10 0
-9 -10 0
1 2 3 4 5 6 7 8 9 10 0
-1 -11 0
-1 -12 0
-1 -13 0
-1 -14 0
-1 -15 0
-1 -16 0
-11 -12 0
-11 -13 0
-11 -14 0
-11 -15 0
-11 -16 0
-12 -13 0
-12 -14 0
-12 -15 0
-12 -16 0
-13 -14 0
-13 -15 0
-13 -16 0
-14 -15 0
-14 -16 0
-15 -16 0
1 11 12 13 14 15 16 0
-2 -11 0
-2 -17 0
-2 -18 0
-2 -19 0
-2 -20 0
-2 -21 0
-2 -22 0
-2 -23 0
-11 -17 0
-11 -18 0
-11 -19 0
-11 -20 0
-11 -21 0
-11 -22 0
-11 -23 0
-17 -18 0
-17 -19 0
-17 -20 0
-17 -21 0
-17 -22 0
-17 -23 0
-18 -19 0
-18 -20 0
-18 -21 0
-18 -22 0
-18 -23 0
-19 -20 0
-19 -21 0
-19 -22 0
-19 -23 0
-20 -21 0
-20 -22 0
-20 -23 0
-21 -22 0
-21 -23 0
-22 -23 0
2 11 17 18 19 20 21 22 23 0
-3 -24 0
-3 -25 0
-3 -26 0
-3 -27 0
-3 -28 0
-3 -29 0
-3 -30 0
-24 -25 0
-24 -26 0
-24 -27 0
-24 -28 0
-24 -29 0
-24 -30 0
-25 -26 0
-25 -27 0
-25 -28 0
-25 -29 0
-25 -30 0
-26 -27 0
-26 -28 0
-26 -29 0
-26 -30 0
-27 -28 0
-27 -29 0
-27 -30 0
-28 -29 0
-28 -30 0
-29 -30 0
3 24 25 26 27 28 29 30 0
-31 -32 0
-31 -33 0
-31 -34 0
-31 -35 0
-31 -36 0
-32 -33 0
-32 -34 0
-32 -35 0
-32 -36 0
-33 -34 0
-33 -35 0
-33 -36 0
-34 -35 0
-34 -36 0
-35 -36 0
31 32 33 34 35 36 0
-37 -38 0
-37 -39 0
-37 -40 0
-37 -41 0
-38 -39 0
-38 -40 0
-38 -41 0
-39 -40 0
-39 -41 0
-40 -41 0
37 38 39 40 41 0
-42 -43 0
-42 -44 0
-42 -45 0
-42 -46 0
-42 -47 0
-42 -48 0
-42 -49 0
-43 -44 0
-43 -45 0
-43 -46 0
-43 -47 0
-43 -48 0
-43 -49 0
-44 -45 0
-44 -46 0
-44 -47 0
-44 -48 0
-44 -49 0
-45 -46 0
-45 -47 0
-45 -48 0
-45 -49 0
-46 -47 0
-46 -48 0
-46 -49 0
-47 -48 0
-47 -49 0
-48 -49 0
42 43 44 45 46 47 48 49 0
-24 -37 0
-24 -42 0
-24 -50 0
-24 -51 0
-24 -52 0
-24 -53 0
-24 -54 0
-37 -42 0
-37 -50 0
-37 -51 0
-37 -52 0
-37 -53 0
-37 -54 0
-42 -50 0
-42 -51 0
-42 -52 0
-42 -53 0
-42 -54 0
-50 -51 0
-50 -52 0
-50 -53 0
-50 -54 0
-51 -52 0
-51 -53 0
-51 -54 0
-52 -53 0
-52 -54 0
-53 -54 0
24 37 42 50 51 52 53 54 0
-55 -56 0
-55 -57 0
-56 -57 0
55 56 57 0
-58 -59 0
-58 -60 0
-58 -61 0
-58 -62 0
-58 -63 0
-58 -64 0
-58 -65 0
-58 -66 0
-58 -67 0
-59 -60 0
-59 -61 0
-59 -62 0
-59 -63 0
-59 -64 0
-59 -65 0
-59 -66 0
-59 -67 0
-60 -61 0
-60 -62 0
-60 -63 0
-60 -64 0
-60 -65 0
-60 -66 0
-60 -67 0
-61 -62 0
-61 -63 0
-61 -64 0
-61 -65 0
-61 -66 0
-61 -67 0
-62 -63 0
-62 -64 0
-62 -65 0
-62 -66 0
-62 -67 0
-63 -64 0
-63 -65 0
-63 -66 0
-63 -67 0
-64 -65 0
-64 -66 0
-64 -67 0
-65 -66 0
-65 -67 0
-66 -67 0
58 59 60 61 62 63 64 65 66 67 0
-17 -43 0
-17 -55 0
-17 -58 0
-17 -68 0
-17 -69 0
-17 -70 0
-17 -71 0
-17 -72 0
-17 -73 0
-17 -74 0
-43 -55 0
-43 -58 0
-43 -68 0
-43 -69 0
-43 -70 0
-43 -71 0
-43 -72 0
-43 -73 0
-43 -74 0
-55 -58 0
-55 -68 0
-55 -69 0
-55 -70 0
-55 -71 0
-55 -72 0
-55 -73 0
-55 -74 0
-58 -68 0
-58 -69 0
-58 -70 0
-58 -71 0
-58 -72 0
-58 -73 0
-58 -74 0
-68 -69 0
-68 -70 0
-68 -71 0
-68 -72 0
-68 -73 0
-68 -74 0
-69 -70 0
-69 -71 0
-69 -72 0
-69 -73 0
-69 -74 0
-70 -71 0
-70 -72 0
-70 -73 0
-70 -74 0
-71 -72 0
-71 -73 0
-71 -74 0
-72 -73 0
-72 -74 0
-73 -74 0
17 43 55 58 68 69 70 71 72 73 74 0
-59 -68 0
-59 -75 0
-59 -76 0
-59 -77 0
-59 -78 0
-59 -79 0
-59 -80 0
-59 -81 0
-68 -75 0
-68 -76 0
-68 -77 0
-68 -78 0
-68 -79 0
-68 -80 0
-68 -81 0
-75 -76 0
-75 -77 0
-75 -78 0
-75 -79 0
-75 -80 0
-75 -81 0
-76 -77 0
-76 -78 0
-76 -79 0
-76 -80 0
-76 -81 0
-77 -78 0
-77 -79 0
-77 -80 0
-77 -81 0
-78 -79 0
-78 -80 0
-78 -81 0
-79 -80 0
-79 -81 0
-80 -81 0
59 68 75 76 77 78 79 80 81 0
-12 -25 0
-12 -31 0
-12 -60 0
-12 -75 0
-12 -82 0
-12 -83 0
-12 -84 0
-12 -85 0
-12 -86 0
-25 -31 0
-25 -60 0
-25 -75 0
-25 -82 0
-25 -83 0
-25 -84 0
-25 -85 0
-25 -86 0
-31 -60 0
-31 -75 0
-31 -82 0
-31 -83 0
-31 -84 0
-31 -85 0
-31 -86 0
-60 -75 0
-60 -82 0
-60 -83 0
-60 -84 0
-60 -85 0
-60 -86 0
-75 -82 0
-75 -83 0
-75 -84 0
-75 -85 0
-75 -86 0
-82 -83 0
-82 -84 0
-82 -85 0
-82 -86 0
-83 -84 0
-83 -85 0
-83 -86 0
-84 -85 0
-84 -86 0
-85 -86 0
12 25 31 60 75 82 83 84 85 86 0
-50 -87 0
-50 -88 0
-50 -89 0
-50 -90 0
-50 -91 0
-87 -88 0
-87 -89 0
-87 -90 0
-87 -91 0
-88 -89 0
-88 -90 0
-88 -91 0
-89 -90 0
-89 -91 0
-90 -91 0
50 87 88 89 90 91 0
-4 -13 0
-4 -76 0
-4 -82 0
-4 -92 0
-4 -93 0
-4 -94 0
-4 -95 0
-4 -96 0
-4 -97 0
-4 -98 0
-13 -76 0
-13 -82 0
-13 -92 0
-13 -93 0
-13 -94 0
-13 -95 0
-13 -96 0
-13 -97 0
-13 -98 0
-76 -82 0
-76 -92 0
-76 -93 0
-76 -94 0
-76 -95 0
-76 -96 0
-76 -97 0
-76 -98 0
-82 -92 0
-82 -93 0
-82 -94 0
-82 -95 0
-82 -96 0
-82 -97 0
-82 -98 0
-92 -93 0
-92 -94 0
-92 -95 0
-92 -96 0
-92 -97 0
-92 -98 0
-93 -94 0
-93 -95 0
-93 -96 0
-93 -97 0
-93 -98 0
-94 -95 0
-94 -96 0
-94 -97 0
-94 -98 0
-95 -96 0
-95 -97 0
-95 -98 0
-96 -97 0
-96 -98 0
-97 -98 0
4 13 76 82 92 93 94 95 96 97 98 0
-5 -18 0
-5 -26 0
-5 -38 0
-5 -69 0
-5 -77 0
-5 -92 0
-5 -99 0
-5 -100 0
-5 -101 0
-5 -102 0
-5 -103 0
-5 -104 0
-18 -26 0
-18 -38 0
-18 -69 0
-18 -77 0
-18 -92 0
-18 -99 0
-18 -100 0
-18 -101 0
-18 -102 0
-18 -103 0
-18 -104 0
-26 -38 0
-26 -69 0
-26 -77 0
-26 -92 0
-26 -99 0
-26 -100 0
-26 -101 0
-26 -102 0
-26 -103 0
-26 -104 0
-38 -69 0
-38 -77 0
-38 -92 0
-38 -99 0
-38 -100 0
-38 -101 0
-38 -102 0
-38 -103 0
-38 -104 0
-69 -77 0
-69 -92 0
-69 -99 0
-69 -100 0
-69 -101 0
-69 -102 0
-69 -103 0
-69 -104 0
-77 -92 0
-77 -99 0
-77 -100 0
-77 -101 0
-77 -102 0
-77 -103 0
-77 -104 0
-92 -99 0
-92 -100 0
-92 -101 0
-92 -102 0
-92 -103 0
-92 -104 0
-99 -100 0
-99 -101 0
-99 -102 0
-99 -103 0
-99 -104 0
-100 -101 0
-100 -102 0
-100 -103 0
-100 -104 0
-101 -102 0
-101 -103 0
-101 -104 0
-102 -103 0
-102 -104 0
-103 -104 0
5 18 26 38 69 77 92 99 100 101 102 103 104 0
-6 -19 0
-6 -27 0
-6 -32 0
-6 -39 0
-6 -70 0
-6 -78 0
-6 -83 0
-6 -87 0
-6 -105 0
-6 -106 0
-19 -27 0
-19 -32 0
-19 -39 0
-19 -70 0
-19 -78 0
-19 -83 0
-19 -87 0
-19 -105 0
-19 -106 0
-27 -32 0
-27 -39 0
-27 -70 0
-27 -78 0
-27 -83 0
-27 -87 0
-27 -105 0
-27 -106 0
-32 -39 0
-32 -70 0
-32 -78 0
-32 -83 0
-32 -87 0
-32 -105 0
-32 -106 0
-39 -70 0
-39 -78 0
-39 -83 0
-39 -87 0
-39 -105 0
-39 -106 0
-70 -78 0
-70 -83 0
-70 -87 0
-70 -105 0
-70 -106 0
-78 -83 0
-78 -87 0
-78 -105 0
-78 -106 0
-83 -87 0
-83 -105 0
-83 -106 0
-87 -105 0
-87 -106 0
-105 -106 0
6 19 27 32 39 70 78 83 87 105 106 0
-14 -20 0
-14 -28 0
-14 -33 0
-14 -40 0
-14 -44 0
-14 -71 0
-14 -84 0
-14 -93 0
-20 -28 0
-20 -33 0
-20 -40 0
-20 -44 0
-20 -71 0
-20 -84 0
-20 -93 0
-28 -33 0
-28 -40 0
-28 -44 0
-28 -71 0
-28 -84 0
-28 -93 0
-33 -40 0
-33 -44 0
-33 -71 0
-33 -84 0
-33 -93 0
-40 -44 0
-40 -71 0
-40 -84 0
-40 -93 0
-44 -71 0
-44 -84 0
-44 -93 0
-71 -84 0
-71 -93 0
-84 -93 0
14 20 28 33 40 44 71 84 93 0
-15 -41 0
-15 -45 0
-15 -61 0
-15 -72 0
-15 -94 0
-15 -99 0
-15 -107 0
-15 -108 0
-41 -45 0
-41 -61 0
-41 -72 0
-41 -94 0
-41 -99 0
-41 -107 0
-41 -108 0
-45 -61 0
-45 -72 0
-45 -94 0
-45 -99 0
-45 -107 0
-45 -108 0
-61 -72 0
-61 -94 0
-61 -99 0
-61 -107 0
-61 -108 0
-72 -94 0
-72 -99 0
-72 -107 0
-72 -108 0
-94 -99 0
-94 -107 0
-94 -108 0
-99 -107 0
-99 -108 0
-107 -108 0
15 41 45 61 72 94 99 107 108 0
-29 -46 0
-29 -62 0
-29 -73 0
-29 -100 0
-29 -105 0
-29 -109 0
-29 -110 0
-29 -111 0
-46 -62 0
-46 -73 0
-46 -100 0
-46 -105 0
-46 -109 0
-46 -110 0
-46 -111 0
-62 -73 0
-62 -100 0
-62 -105 0
-62 -109 0
-62 -110 0
-62 -111 0
-73 -100 0
-73 -105 0
-73 -109 0
-73 -110 0
-73 -111 0
-100 -105 0
-100 -109 0
-100 -110 0
-100 -111 0
-105 -109 0
-105 -110 0
-105 -111 0
-109 -110 0
-109 -111 0
-110 -111 0
29 46 62 73 100 105 109 110 111 0
-7 -16 0
-7 -47 0
-7 -109 0
-16 -47 0
-16 -109 0
-47 -109 0
7 16 47 109 0
-21 -48 0
-21 -85 0
-21 -88 0
-21 -101 0
-21 -110 0
-21 -112 0
-48 -85 0
-48 -88 0
-48 -101 0
-48 -110 0
-48 -112 0
-85 -88 0
-85 -101 0
-85 -110 0
-85 -112 0
-88 -101 0
-88 -110 0
-88 -112 0
-101 -110 0
-101 -112 0
-110 -112 0
21 48 85 88 101 110 112 0
-22 -34 0
-22 -51 0
-22 -86 0
-22 -89 0
-22 -95 0
-22 -112 0
-22 -113 0
-22 -114 0
-22 -115 0
-34 -51 0
-34 -86 0
-34 -89 0
-34 -95 0
-34 -112 0
-34 -113 0
-34 -114 0
-34 -115 0
-51 -86 0
-51 -89 0
-51 -95 0
-51 -112 0
-51 -113 0
-51 -114 0
-51 -115 0
-86 -89 0
-86 -95 0
-86 -112 0
-86 -113 0
-86 -114 0
-86 -115 0
-89 -95 0
-89 -112 0
-89 -113 0
-89 -114 0
-89 -115 0
-95 -112 0
-95 -113 0
-95 -114 0
-95 -115 0
-112 -113 0
-112 -114 0
-112 -115 0
-113 -114 0
-113 -115 0
-114 -115 0
22 34 51 86 89 95 112 113 114 115 0
-35 -52 0
-35 -56 0
-35 -79 0
-35 -102 0
-35 -116 0
-52 -56 0
-52 -79 0
-52 -102 0
-52 -116 0
-56 -79 0
-56 -102 0
-56 -116 0
-79 -102 0
-79 -116 0
-102 -116 0
35 52 56 79 102 116 0
-8 -23 0
-8 -63 0
-8 -111 0
-8 -116 0
-23 -63 0
-23 -111 0
-23 -116 0
-63 -111 0
-63 -116 0
-111 -116 0
8 23 63 111 116 0
-64 -96 0
-64 -113 0
-64 -117 0
-64 -118 0
-64 -119 0
-96 -113 0
-96 -117 0
-96 -118 0
-96 -119 0
-113 -117 0
-113 -118 0
-113 -119 0
-117 -118 0
-117 -119 0
-118 -119 0
64 96 113 117 118 119 0
-9 -65 0
-9 -114 0
-9 -117 0
-65 -114 0
-65 -117 0
-114 -117 0
9 65 114 117 0
-30 -53 0
-30 -66 0
-30 -80 0
-30 -90 0
-30 -97 0
-30 -115 0
-30 -118 0
-30 -120 0
-53 -66 0
-53 -80 0
-53 -90 0
-53 -97 0
-53 -115 0
-53 -118 0
-53 -120 0
-66 -80 0
-66 -90 0
-66 -97 0
-66 -115 0
-66 -118 0
-66 -120 0
-80 -90 0
-80 -97 0
-80 -115 0
-80 -118 0
-80 -120 0
-90 -97 0
-90 -115 0
-90 -118 0
-90 -120 0
-97 -115 0
-97 -118 0
-97 -120 0
-115 -118 0
-115 -120 0
-118 -120 0
30 53 66 80 90 97 115 118 120 0
-49 -54 0
-49 -57 0
-49 -67 0
-49 -81 0
-49 -98 0
-49 -103 0
-49 -106 0
-49 -107 0
-49 -119 0
-54 -57 0
-54 -67 0
-54 -81 0
-54 -98 0
-54 -103 0
-54 -106 0
-54 -107 0
-54 -119 0
-57 -67 0
-57 -81 0
-57 -98 0
-57 -103 0
-57 -106 0
-57 -107 0
-57 -119 0
-67 -81 0
-67 -98 0
-67 -103 0
-67 -106 0
-67 -107 0
-67 -119 0
-81 -98 0
-81 -103 0
-81 -106 0
-81 -107 0
-81 -119 0
-98 -103 0
-98 -106 0
-98 -107 0
-98 -119 0
-103 -106 0
-103 -107 0
-103 -119 0
-106 -107 0
-106 -119 0
-107 -119 0
49 54 57 67 81 98 103 106 107 119 0
-10 -36 0
-10 -74 0
-10 -91 0
-10 -104 0
-10 -108 0
-10 -120 0
-36 -74 0
-36 -91 0
-36 -104 0
-36 -108 0
-36 -120 0
-74 -91 0
-74 -104 0
-74 -108 0
-74 -120 0
-91 -104 0
-91 -108 0
-91 -120 0
-104 -108 0
-104 -120 0
-108 -120 0
10 36 74 91 104 108 120 0